Route #1: 0 47 17 11 21 25 0
Route #2: 0 3 5 14 13 52 41 9 0
Route #3: 0 4 22 45 42 48 16 12 7 0
Route #4: 0 40 26 10 29 49 36 2 37 44 30 0
Route #5: 0 46 27 35 6 31 0
Route #6: 0 28 51 8 18 38 20 0
Route #7: 0 1 50 43 23 19 15 32 24 34 39 33 0
Cost 1175:
